p cnf 99 2060
-1 2 0
-1 -3 0
-1 4 0
-1 5 0
-1 -6 0
-1 7 0
-1 -8 0
-1 -9 0
-1 10 0
-1 11 0
-1 -12 0
-1 -13 0
-1 14 0
-1 -15 0
-1 -16 0
-1 17 0
-1 18 0
-1 19 0
-1 -20 0
-1 21 0
-1 -22 0
-1 23 0
-1 24 0
-1 25 0
-1 26 0
-1 27 0
-1 28 0
-1 -29 0
-1 -30 0
-1 -31 0
-1 32 0
-1 33 0
-34 35 0
-34 -36 0
-34 37 0
-34 38 0
-34 -39 0
-34 40 0
-34 -41 0
-34 -42 0
-34 43 0
-34 44 0
-34 -45 0
-34 -46 0
-34 47 0
-34 -48 0
-34 -49 0
-34 50 0
-34 51 0
-34 52 0
-34 -53 0
-34 54 0
-34 -55 0
-34 56 0
-34 57 0
-34 58 0
-34 59 0
-34 60 0
-34 61 0
-34 -62 0
-34 -63 0
-34 -64 0
-34 65 0
-34 66 0
1 34 0
67 68 69 70 71 72 73 74 75 76 0
77 78 79 80 81 82 83 84 85 86 87 88 89 90 91 0
-67 2 -92 0
-67 -2 92 0
-67 3 -94 0
-67 -3 94 0
-67 4 -93 0
-67 -4 93 0
-67 5 -95 0
-67 -5 95 0
-67 6 -92 0
-67 -6 92 0
-67 7 -94 0
-67 -7 94 0
-67 8 -93 0
-67 -8 93 0
-67 9 -95 0
-67 -9 95 0
-67 10 -92 0
-67 -10 92 0
-67 11 -94 0
-67 -11 94 0
-67 12 -93 0
-67 -12 93 0
-67 13 -95 0
-67 -13 95 0
-67 14 -92 0
-67 -14 92 0
-67 15 -94 0
-67 -15 94 0
-67 16 -93 0
-67 -16 93 0
-67 17 -95 0
-67 -17 95 0
-67 18 -92 0
-67 -18 92 0
-67 19 -94 0
-67 -19 94 0
-67 20 -93 0
-67 -20 93 0
-67 21 -95 0
-67 -21 95 0
-67 22 -92 0
-67 -22 92 0
-67 23 -94 0
-67 -23 94 0
-67 24 -93 0
-67 -24 93 0
-67 25 -95 0
-67 -25 95 0
-67 26 -92 0
-67 -26 92 0
-67 27 -94 0
-67 -27 94 0
-67 28 -93 0
-67 -28 93 0
-67 29 -95 0
-67 -29 95 0
-67 30 -92 0
-67 -30 92 0
-67 31 -94 0
-67 -31 94 0
-67 32 -93 0
-67 -32 93 0
-67 33 -95 0
-67 -33 95 0
-68 2 -92 0
-68 -2 92 0
-68 3 -94 0
-68 -3 94 0
-68 4 -92 0
-68 -4 92 0
-68 5 -94 0
-68 -5 94 0
-68 6 -93 0
-68 -6 93 0
-68 7 -95 0
-68 -7 95 0
-68 8 -93 0
-68 -8 93 0
-68 9 -95 0
-68 -9 95 0
-68 10 -92 0
-68 -10 92 0
-68 11 -94 0
-68 -11 94 0
-68 12 -92 0
-68 -12 92 0
-68 13 -94 0
-68 -13 94 0
-68 14 -93 0
-68 -14 93 0
-68 15 -95 0
-68 -15 95 0
-68 16 -93 0
-68 -16 93 0
-68 17 -95 0
-68 -17 95 0
-68 18 -92 0
-68 -18 92 0
-68 19 -94 0
-68 -19 94 0
-68 20 -92 0
-68 -20 92 0
-68 21 -94 0
-68 -21 94 0
-68 22 -93 0
-68 -22 93 0
-68 23 -95 0
-68 -23 95 0
-68 24 -93 0
-68 -24 93 0
-68 25 -95 0
-68 -25 95 0
-68 26 -92 0
-68 -26 92 0
-68 27 -94 0
-68 -27 94 0
-68 28 -92 0
-68 -28 92 0
-68 29 -94 0
-68 -29 94 0
-68 30 -93 0
-68 -30 93 0
-68 31 -95 0
-68 -31 95 0
-68 32 -93 0
-68 -32 93 0
-68 33 -95 0
-68 -33 95 0
-69 2 -92 0
-69 -2 92 0
-69 3 -92 0
-69 -3 92 0
-69 4 -94 0
-69 -4 94 0
-69 5 -94 0
-69 -5 94 0
-69 6 -93 0
-69 -6 93 0
-69 7 -93 0
-69 -7 93 0
-69 8 -95 0
-69 -8 95 0
-69 9 -95 0
-69 -9 95 0
-69 10 -92 0
-69 -10 92 0
-69 11 -92 0
-69 -11 92 0
-69 12 -94 0
-69 -12 94 0
-69 13 -94 0
-69 -13 94 0
-69 14 -93 0
-69 -14 93 0
-69 15 -93 0
-69 -15 93 0
-69 16 -95 0
-69 -16 95 0
-69 17 -95 0
-69 -17 95 0
-69 18 -92 0
-69 -18 92 0
-69 19 -92 0
-69 -19 92 0
-69 20 -94 0
-69 -20 94 0
-69 21 -94 0
-69 -21 94 0
-69 22 -93 0
-69 -22 93 0
-69 23 -93 0
-69 -23 93 0
-69 24 -95 0
-69 -24 95 0
-69 25 -95 0
-69 -25 95 0
-69 26 -92 0
-69 -26 92 0
-69 27 -92 0
-69 -27 92 0
-69 28 -94 0
-69 -28 94 0
-69 29 -94 0
-69 -29 94 0
-69 30 -93 0
-69 -30 93 0
-69 31 -93 0
-69 -31 93 0
-69 32 -95 0
-69 -32 95 0
-69 33 -95 0
-69 -33 95 0
-70 2 -92 0
-70 -2 92 0
-70 3 -94 0
-70 -3 94 0
-70 4 -92 0
-70 -4 92 0
-70 5 -94 0
-70 -5 94 0
-70 6 -92 0
-70 -6 92 0
-70 7 -94 0
-70 -7 94 0
-70 8 -92 0
-70 -8 92 0
-70 9 -94 0
-70 -9 94 0
-70 10 -93 0
-70 -10 93 0
-70 11 -95 0
-70 -11 95 0
-70 12 -93 0
-70 -12 93 0
-70 13 -95 0
-70 -13 95 0
-70 14 -93 0
-70 -14 93 0
-70 15 -95 0
-70 -15 95 0
-70 16 -93 0
-70 -16 93 0
-70 17 -95 0
-70 -17 95 0
-70 18 -92 0
-70 -18 92 0
-70 19 -94 0
-70 -19 94 0
-70 20 -92 0
-70 -20 92 0
-70 21 -94 0
-70 -21 94 0
-70 22 -92 0
-70 -22 92 0
-70 23 -94 0
-70 -23 94 0
-70 24 -92 0
-70 -24 92 0
-70 25 -94 0
-70 -25 94 0
-70 26 -93 0
-70 -26 93 0
-70 27 -95 0
-70 -27 95 0
-70 28 -93 0
-70 -28 93 0
-70 29 -95 0
-70 -29 95 0
-70 30 -93 0
-70 -30 93 0
-70 31 -95 0
-70 -31 95 0
-70 32 -93 0
-70 -32 93 0
-70 33 -95 0
-70 -33 95 0
-71 2 -92 0
-71 -2 92 0
-71 3 -92 0
-71 -3 92 0
-71 4 -94 0
-71 -4 94 0
-71 5 -94 0
-71 -5 94 0
-71 6 -92 0
-71 -6 92 0
-71 7 -92 0
-71 -7 92 0
-71 8 -94 0
-71 -8 94 0
-71 9 -94 0
-71 -9 94 0
-71 10 -93 0
-71 -10 93 0
-71 11 -93 0
-71 -11 93 0
-71 12 -95 0
-71 -12 95 0
-71 13 -95 0
-71 -13 95 0
-71 14 -93 0
-71 -14 93 0
-71 15 -93 0
-71 -15 93 0
-71 16 -95 0
-71 -16 95 0
-71 17 -95 0
-71 -17 95 0
-71 18 -92 0
-71 -18 92 0
-71 19 -92 0
-71 -19 92 0
-71 20 -94 0
-71 -20 94 0
-71 21 -94 0
-71 -21 94 0
-71 22 -92 0
-71 -22 92 0
-71 23 -92 0
-71 -23 92 0
-71 24 -94 0
-71 -24 94 0
-71 25 -94 0
-71 -25 94 0
-71 26 -93 0
-71 -26 93 0
-71 27 -93 0
-71 -27 93 0
-71 28 -95 0
-71 -28 95 0
-71 29 -95 0
-71 -29 95 0
-71 30 -93 0
-71 -30 93 0
-71 31 -93 0
-71 -31 93 0
-71 32 -95 0
-71 -32 95 0
-71 33 -95 0
-71 -33 95 0
-72 2 -92 0
-72 -2 92 0
-72 3 -92 0
-72 -3 92 0
-72 4 -92 0
-72 -4 92 0
-72 5 -92 0
-72 -5 92 0
-72 6 -94 0
-72 -6 94 0
-72 7 -94 0
-72 -7 94 0
-72 8 -94 0
-72 -8 94 0
-72 9 -94 0
-72 -9 94 0
-72 10 -93 0
-72 -10 93 0
-72 11 -93 0
-72 -11 93 0
-72 12 -93 0
-72 -12 93 0
-72 13 -93 0
-72 -13 93 0
-72 14 -95 0
-72 -14 95 0
-72 15 -95 0
-72 -15 95 0
-72 16 -95 0
-72 -16 95 0
-72 17 -95 0
-72 -17 95 0
-72 18 -92 0
-72 -18 92 0
-72 19 -92 0
-72 -19 92 0
-72 20 -92 0
-72 -20 92 0
-72 21 -92 0
-72 -21 92 0
-72 22 -94 0
-72 -22 94 0
-72 23 -94 0
-72 -23 94 0
-72 24 -94 0
-72 -24 94 0
-72 25 -94 0
-72 -25 94 0
-72 26 -93 0
-72 -26 93 0
-72 27 -93 0
-72 -27 93 0
-72 28 -93 0
-72 -28 93 0
-72 29 -93 0
-72 -29 93 0
-72 30 -95 0
-72 -30 95 0
-72 31 -95 0
-72 -31 95 0
-72 32 -95 0
-72 -32 95 0
-72 33 -95 0
-72 -33 95 0
-73 2 -92 0
-73 -2 92 0
-73 3 -94 0
-73 -3 94 0
-73 4 -92 0
-73 -4 92 0
-73 5 -94 0
-73 -5 94 0
-73 6 -92 0
-73 -6 92 0
-73 7 -94 0
-73 -7 94 0
-73 8 -92 0
-73 -8 92 0
-73 9 -94 0
-73 -9 94 0
-73 10 -92 0
-73 -10 92 0
-73 11 -94 0
-73 -11 94 0
-73 12 -92 0
-73 -12 92 0
-73 13 -94 0
-73 -13 94 0
-73 14 -92 0
-73 -14 92 0
-73 15 -94 0
-73 -15 94 0
-73 16 -92 0
-73 -16 92 0
-73 17 -94 0
-73 -17 94 0
-73 18 -93 0
-73 -18 93 0
-73 19 -95 0
-73 -19 95 0
-73 20 -93 0
-73 -20 93 0
-73 21 -95 0
-73 -21 95 0
-73 22 -93 0
-73 -22 93 0
-73 23 -95 0
-73 -23 95 0
-73 24 -93 0
-73 -24 93 0
-73 25 -95 0
-73 -25 95 0
-73 26 -93 0
-73 -26 93 0
-73 27 -95 0
-73 -27 95 0
-73 28 -93 0
-73 -28 93 0
-73 29 -95 0
-73 -29 95 0
-73 30 -93 0
-73 -30 93 0
-73 31 -95 0
-73 -31 95 0
-73 32 -93 0
-73 -32 93 0
-73 33 -95 0
-73 -33 95 0
-74 2 -92 0
-74 -2 92 0
-74 3 -92 0
-74 -3 92 0
-74 4 -94 0
-74 -4 94 0
-74 5 -94 0
-74 -5 94 0
-74 6 -92 0
-74 -6 92 0
-74 7 -92 0
-74 -7 92 0
-74 8 -94 0
-74 -8 94 0
-74 9 -94 0
-74 -9 94 0
-74 10 -92 0
-74 -10 92 0
-74 11 -92 0
-74 -11 92 0
-74 12 -94 0
-74 -12 94 0
-74 13 -94 0
-74 -13 94 0
-74 14 -92 0
-74 -14 92 0
-74 15 -92 0
-74 -15 92 0
-74 16 -94 0
-74 -16 94 0
-74 17 -94 0
-74 -17 94 0
-74 18 -93 0
-74 -18 93 0
-74 19 -93 0
-74 -19 93 0
-74 20 -95 0
-74 -20 95 0
-74 21 -95 0
-74 -21 95 0
-74 22 -93 0
-74 -22 93 0
-74 23 -93 0
-74 -23 93 0
-74 24 -95 0
-74 -24 95 0
-74 25 -95 0
-74 -25 95 0
-74 26 -93 0
-74 -26 93 0
-74 27 -93 0
-74 -27 93 0
-74 28 -95 0
-74 -28 95 0
-74 29 -95 0
-74 -29 95 0
-74 30 -93 0
-74 -30 93 0
-74 31 -93 0
-74 -31 93 0
-74 32 -95 0
-74 -32 95 0
-74 33 -95 0
-74 -33 95 0
-75 2 -92 0
-75 -2 92 0
-75 3 -92 0
-75 -3 92 0
-75 4 -92 0
-75 -4 92 0
-75 5 -92 0
-75 -5 92 0
-75 6 -94 0
-75 -6 94 0
-75 7 -94 0
-75 -7 94 0
-75 8 -94 0
-75 -8 94 0
-75 9 -94 0
-75 -9 94 0
-75 10 -92 0
-75 -10 92 0
-75 11 -92 0
-75 -11 92 0
-75 12 -92 0
-75 -12 92 0
-75 13 -92 0
-75 -13 92 0
-75 14 -94 0
-75 -14 94 0
-75 15 -94 0
-75 -15 94 0
-75 16 -94 0
-75 -16 94 0
-75 17 -94 0
-75 -17 94 0
-75 18 -93 0
-75 -18 93 0
-75 19 -93 0
-75 -19 93 0
-75 20 -93 0
-75 -20 93 0
-75 21 -93 0
-75 -21 93 0
-75 22 -95 0
-75 -22 95 0
-75 23 -95 0
-75 -23 95 0
-75 24 -95 0
-75 -24 95 0
-75 25 -95 0
-75 -25 95 0
-75 26 -93 0
-75 -26 93 0
-75 27 -93 0
-75 -27 93 0
-75 28 -93 0
-75 -28 93 0
-75 29 -93 0
-75 -29 93 0
-75 30 -95 0
-75 -30 95 0
-75 31 -95 0
-75 -31 95 0
-75 32 -95 0
-75 -32 95 0
-75 33 -95 0
-75 -33 95 0
-76 2 -92 0
-76 -2 92 0
-76 3 -92 0
-76 -3 92 0
-76 4 -92 0
-76 -4 92 0
-76 5 -92 0
-76 -5 92 0
-76 6 -92 0
-76 -6 92 0
-76 7 -92 0
-76 -7 92 0
-76 8 -92 0
-76 -8 92 0
-76 9 -92 0
-76 -9 92 0
-76 10 -94 0
-76 -10 94 0
-76 11 -94 0
-76 -11 94 0
-76 12 -94 0
-76 -12 94 0
-76 13 -94 0
-76 -13 94 0
-76 14 -94 0
-76 -14 94 0
-76 15 -94 0
-76 -15 94 0
-76 16 -94 0
-76 -16 94 0
-76 17 -94 0
-76 -17 94 0
-76 18 -93 0
-76 -18 93 0
-76 19 -93 0
-76 -19 93 0
-76 20 -93 0
-76 -20 93 0
-76 21 -93 0
-76 -21 93 0
-76 22 -93 0
-76 -22 93 0
-76 23 -93 0
-76 -23 93 0
-76 24 -93 0
-76 -24 93 0
-76 25 -93 0
-76 -25 93 0
-76 26 -95 0
-76 -26 95 0
-76 27 -95 0
-76 -27 95 0
-76 28 -95 0
-76 -28 95 0
-76 29 -95 0
-76 -29 95 0
-76 30 -95 0
-76 -30 95 0
-76 31 -95 0
-76 -31 95 0
-76 32 -95 0
-76 -32 95 0
-76 33 -95 0
-76 -33 95 0
-77 35 -96 0
-77 -35 96 0
-77 36 -98 0
-77 -36 98 0
-77 37 -97 0
-77 -37 97 0
-77 38 -99 0
-77 -38 99 0
-77 39 -96 0
-77 -39 96 0
-77 40 -98 0
-77 -40 98 0
-77 41 -97 0
-77 -41 97 0
-77 42 -99 0
-77 -42 99 0
-77 43 -96 0
-77 -43 96 0
-77 44 -98 0
-77 -44 98 0
-77 45 -97 0
-77 -45 97 0
-77 46 -99 0
-77 -46 99 0
-77 47 -96 0
-77 -47 96 0
-77 48 -98 0
-77 -48 98 0
-77 49 -97 0
-77 -49 97 0
-77 50 -99 0
-77 -50 99 0
-77 51 -96 0
-77 -51 96 0
-77 52 -98 0
-77 -52 98 0
-77 53 -97 0
-77 -53 97 0
-77 54 -99 0
-77 -54 99 0
-77 55 -96 0
-77 -55 96 0
-77 56 -98 0
-77 -56 98 0
-77 57 -97 0
-77 -57 97 0
-77 58 -99 0
-77 -58 99 0
-77 59 -96 0
-77 -59 96 0
-77 60 -98 0
-77 -60 98 0
-77 61 -97 0
-77 -61 97 0
-77 62 -99 0
-77 -62 99 0
-77 63 -96 0
-77 -63 96 0
-77 64 -98 0
-77 -64 98 0
-77 65 -97 0
-77 -65 97 0
-77 66 -99 0
-77 -66 99 0
-78 35 -96 0
-78 -35 96 0
-78 36 -98 0
-78 -36 98 0
-78 37 -96 0
-78 -37 96 0
-78 38 -98 0
-78 -38 98 0
-78 39 -97 0
-78 -39 97 0
-78 40 -99 0
-78 -40 99 0
-78 41 -97 0
-78 -41 97 0
-78 42 -99 0
-78 -42 99 0
-78 43 -96 0
-78 -43 96 0
-78 44 -98 0
-78 -44 98 0
-78 45 -96 0
-78 -45 96 0
-78 46 -98 0
-78 -46 98 0
-78 47 -97 0
-78 -47 97 0
-78 48 -99 0
-78 -48 99 0
-78 49 -97 0
-78 -49 97 0
-78 50 -99 0
-78 -50 99 0
-78 51 -96 0
-78 -51 96 0
-78 52 -98 0
-78 -52 98 0
-78 53 -96 0
-78 -53 96 0
-78 54 -98 0
-78 -54 98 0
-78 55 -97 0
-78 -55 97 0
-78 56 -99 0
-78 -56 99 0
-78 57 -97 0
-78 -57 97 0
-78 58 -99 0
-78 -58 99 0
-78 59 -96 0
-78 -59 96 0
-78 60 -98 0
-78 -60 98 0
-78 61 -96 0
-78 -61 96 0
-78 62 -98 0
-78 -62 98 0
-78 63 -97 0
-78 -63 97 0
-78 64 -99 0
-78 -64 99 0
-78 65 -97 0
-78 -65 97 0
-78 66 -99 0
-78 -66 99 0
-79 35 -96 0
-79 -35 96 0
-79 36 -96 0
-79 -36 96 0
-79 37 -98 0
-79 -37 98 0
-79 38 -98 0
-79 -38 98 0
-79 39 -97 0
-79 -39 97 0
-79 40 -97 0
-79 -40 97 0
-79 41 -99 0
-79 -41 99 0
-79 42 -99 0
-79 -42 99 0
-79 43 -96 0
-79 -43 96 0
-79 44 -96 0
-79 -44 96 0
-79 45 -98 0
-79 -45 98 0
-79 46 -98 0
-79 -46 98 0
-79 47 -97 0
-79 -47 97 0
-79 48 -97 0
-79 -48 97 0
-79 49 -99 0
-79 -49 99 0
-79 50 -99 0
-79 -50 99 0
-79 51 -96 0
-79 -51 96 0
-79 52 -96 0
-79 -52 96 0
-79 53 -98 0
-79 -53 98 0
-79 54 -98 0
-79 -54 98 0
-79 55 -97 0
-79 -55 97 0
-79 56 -97 0
-79 -56 97 0
-79 57 -99 0
-79 -57 99 0
-79 58 -99 0
-79 -58 99 0
-79 59 -96 0
-79 -59 96 0
-79 60 -96 0
-79 -60 96 0
-79 61 -98 0
-79 -61 98 0
-79 62 -98 0
-79 -62 98 0
-79 63 -97 0
-79 -63 97 0
-79 64 -97 0
-79 -64 97 0
-79 65 -99 0
-79 -65 99 0
-79 66 -99 0
-79 -66 99 0
-80 35 -96 0
-80 -35 96 0
-80 36 -98 0
-80 -36 98 0
-80 37 -96 0
-80 -37 96 0
-80 38 -98 0
-80 -38 98 0
-80 39 -96 0
-80 -39 96 0
-80 40 -98 0
-80 -40 98 0
-80 41 -96 0
-80 -41 96 0
-80 42 -98 0
-80 -42 98 0
-80 43 -97 0
-80 -43 97 0
-80 44 -99 0
-80 -44 99 0
-80 45 -97 0
-80 -45 97 0
-80 46 -99 0
-80 -46 99 0
-80 47 -97 0
-80 -47 97 0
-80 48 -99 0
-80 -48 99 0
-80 49 -97 0
-80 -49 97 0
-80 50 -99 0
-80 -50 99 0
-80 51 -96 0
-80 -51 96 0
-80 52 -98 0
-80 -52 98 0
-80 53 -96 0
-80 -53 96 0
-80 54 -98 0
-80 -54 98 0
-80 55 -96 0
-80 -55 96 0
-80 56 -98 0
-80 -56 98 0
-80 57 -96 0
-80 -57 96 0
-80 58 -98 0
-80 -58 98 0
-80 59 -97 0
-80 -59 97 0
-80 60 -99 0
-80 -60 99 0
-80 61 -97 0
-80 -61 97 0
-80 62 -99 0
-80 -62 99 0
-80 63 -97 0
-80 -63 97 0
-80 64 -99 0
-80 -64 99 0
-80 65 -97 0
-80 -65 97 0
-80 66 -99 0
-80 -66 99 0
-81 35 -96 0
-81 -35 96 0
-81 36 -96 0
-81 -36 96 0
-81 37 -98 0
-81 -37 98 0
-81 38 -98 0
-81 -38 98 0
-81 39 -96 0
-81 -39 96 0
-81 40 -96 0
-81 -40 96 0
-81 41 -98 0
-81 -41 98 0
-81 42 -98 0
-81 -42 98 0
-81 43 -97 0
-81 -43 97 0
-81 44 -97 0
-81 -44 97 0
-81 45 -99 0
-81 -45 99 0
-81 46 -99 0
-81 -46 99 0
-81 47 -97 0
-81 -47 97 0
-81 48 -97 0
-81 -48 97 0
-81 49 -99 0
-81 -49 99 0
-81 50 -99 0
-81 -50 99 0
-81 51 -96 0
-81 -51 96 0
-81 52 -96 0
-81 -52 96 0
-81 53 -98 0
-81 -53 98 0
-81 54 -98 0
-81 -54 98 0
-81 55 -96 0
-81 -55 96 0
-81 56 -96 0
-81 -56 96 0
-81 57 -98 0
-81 -57 98 0
-81 58 -98 0
-81 -58 98 0
-81 59 -97 0
-81 -59 97 0
-81 60 -97 0
-81 -60 97 0
-81 61 -99 0
-81 -61 99 0
-81 62 -99 0
-81 -62 99 0
-81 63 -97 0
-81 -63 97 0
-81 64 -97 0
-81 -64 97 0
-81 65 -99 0
-81 -65 99 0
-81 66 -99 0
-81 -66 99 0
-82 35 -96 0
-82 -35 96 0
-82 36 -96 0
-82 -36 96 0
-82 37 -96 0
-82 -37 96 0
-82 38 -96 0
-82 -38 96 0
-82 39 -98 0
-82 -39 98 0
-82 40 -98 0
-82 -40 98 0
-82 41 -98 0
-82 -41 98 0
-82 42 -98 0
-82 -42 98 0
-82 43 -97 0
-82 -43 97 0
-82 44 -97 0
-82 -44 97 0
-82 45 -97 0
-82 -45 97 0
-82 46 -97 0
-82 -46 97 0
-82 47 -99 0
-82 -47 99 0
-82 48 -99 0
-82 -48 99 0
-82 49 -99 0
-82 -49 99 0
-82 50 -99 0
-82 -50 99 0
-82 51 -96 0
-82 -51 96 0
-82 52 -96 0
-82 -52 96 0
-82 53 -96 0
-82 -53 96 0
-82 54 -96 0
-82 -54 96 0
-82 55 -98 0
-82 -55 98 0
-82 56 -98 0
-82 -56 98 0
-82 57 -98 0
-82 -57 98 0
-82 58 -98 0
-82 -58 98 0
-82 59 -97 0
-82 -59 97 0
-82 60 -97 0
-82 -60 97 0
-82 61 -97 0
-82 -61 97 0
-82 62 -97 0
-82 -62 97 0
-82 63 -99 0
-82 -63 99 0
-82 64 -99 0
-82 -64 99 0
-82 65 -99 0
-82 -65 99 0
-82 66 -99 0
-82 -66 99 0
-83 35 -96 0
-83 -35 96 0
-83 36 -98 0
-83 -36 98 0
-83 37 -96 0
-83 -37 96 0
-83 38 -98 0
-83 -38 98 0
-83 39 -96 0
-83 -39 96 0
-83 40 -98 0
-83 -40 98 0
-83 41 -96 0
-83 -41 96 0
-83 42 -98 0
-83 -42 98 0
-83 43 -96 0
-83 -43 96 0
-83 44 -98 0
-83 -44 98 0
-83 45 -96 0
-83 -45 96 0
-83 46 -98 0
-83 -46 98 0
-83 47 -96 0
-83 -47 96 0
-83 48 -98 0
-83 -48 98 0
-83 49 -96 0
-83 -49 96 0
-83 50 -98 0
-83 -50 98 0
-83 51 -97 0
-83 -51 97 0
-83 52 -99 0
-83 -52 99 0
-83 53 -97 0
-83 -53 97 0
-83 54 -99 0
-83 -54 99 0
-83 55 -97 0
-83 -55 97 0
-83 56 -99 0
-83 -56 99 0
-83 57 -97 0
-83 -57 97 0
-83 58 -99 0
-83 -58 99 0
-83 59 -97 0
-83 -59 97 0
-83 60 -99 0
-83 -60 99 0
-83 61 -97 0
-83 -61 97 0
-83 62 -99 0
-83 -62 99 0
-83 63 -97 0
-83 -63 97 0
-83 64 -99 0
-83 -64 99 0
-83 65 -97 0
-83 -65 97 0
-83 66 -99 0
-83 -66 99 0
-84 35 -96 0
-84 -35 96 0
-84 36 -96 0
-84 -36 96 0
-84 37 -98 0
-84 -37 98 0
-84 38 -98 0
-84 -38 98 0
-84 39 -96 0
-84 -39 96 0
-84 40 -96 0
-84 -40 96 0
-84 41 -98 0
-84 -41 98 0
-84 42 -98 0
-84 -42 98 0
-84 43 -96 0
-84 -43 96 0
-84 44 -96 0
-84 -44 96 0
-84 45 -98 0
-84 -45 98 0
-84 46 -98 0
-84 -46 98 0
-84 47 -96 0
-84 -47 96 0
-84 48 -96 0
-84 -48 96 0
-84 49 -98 0
-84 -49 98 0
-84 50 -98 0
-84 -50 98 0
-84 51 -97 0
-84 -51 97 0
-84 52 -97 0
-84 -52 97 0
-84 53 -99 0
-84 -53 99 0
-84 54 -99 0
-84 -54 99 0
-84 55 -97 0
-84 -55 97 0
-84 56 -97 0
-84 -56 97 0
-84 57 -99 0
-84 -57 99 0
-84 58 -99 0
-84 -58 99 0
-84 59 -97 0
-84 -59 97 0
-84 60 -97 0
-84 -60 97 0
-84 61 -99 0
-84 -61 99 0
-84 62 -99 0
-84 -62 99 0
-84 63 -97 0
-84 -63 97 0
-84 64 -97 0
-84 -64 97 0
-84 65 -99 0
-84 -65 99 0
-84 66 -99 0
-84 -66 99 0
-85 35 -96 0
-85 -35 96 0
-85 36 -96 0
-85 -36 96 0
-85 37 -96 0
-85 -37 96 0
-85 38 -96 0
-85 -38 96 0
-85 39 -98 0
-85 -39 98 0
-85 40 -98 0
-85 -40 98 0
-85 41 -98 0
-85 -41 98 0
-85 42 -98 0
-85 -42 98 0
-85 43 -96 0
-85 -43 96 0
-85 44 -96 0
-85 -44 96 0
-85 45 -96 0
-85 -45 96 0
-85 46 -96 0
-85 -46 96 0
-85 47 -98 0
-85 -47 98 0
-85 48 -98 0
-85 -48 98 0
-85 49 -98 0
-85 -49 98 0
-85 50 -98 0
-85 -50 98 0
-85 51 -97 0
-85 -51 97 0
-85 52 -97 0
-85 -52 97 0
-85 53 -97 0
-85 -53 97 0
-85 54 -97 0
-85 -54 97 0
-85 55 -99 0
-85 -55 99 0
-85 56 -99 0
-85 -56 99 0
-85 57 -99 0
-85 -57 99 0
-85 58 -99 0
-85 -58 99 0
-85 59 -97 0
-85 -59 97 0
-85 60 -97 0
-85 -60 97 0
-85 61 -97 0
-85 -61 97 0
-85 62 -97 0
-85 -62 97 0
-85 63 -99 0
-85 -63 99 0
-85 64 -99 0
-85 -64 99 0
-85 65 -99 0
-85 -65 99 0
-85 66 -99 0
-85 -66 99 0
-86 35 -96 0
-86 -35 96 0
-86 36 -96 0
-86 -36 96 0
-86 37 -96 0
-86 -37 96 0
-86 38 -96 0
-86 -38 96 0
-86 39 -96 0
-86 -39 96 0
-86 40 -96 0
-86 -40 96 0
-86 41 -96 0
-86 -41 96 0
-86 42 -96 0
-86 -42 96 0
-86 43 -98 0
-86 -43 98 0
-86 44 -98 0
-86 -44 98 0
-86 45 -98 0
-86 -45 98 0
-86 46 -98 0
-86 -46 98 0
-86 47 -98 0
-86 -47 98 0
-86 48 -98 0
-86 -48 98 0
-86 49 -98 0
-86 -49 98 0
-86 50 -98 0
-86 -50 98 0
-86 51 -97 0
-86 -51 97 0
-86 52 -97 0
-86 -52 97 0
-86 53 -97 0
-86 -53 97 0
-86 54 -97 0
-86 -54 97 0
-86 55 -97 0
-86 -55 97 0
-86 56 -97 0
-86 -56 97 0
-86 57 -97 0
-86 -57 97 0
-86 58 -97 0
-86 -58 97 0
-86 59 -99 0
-86 -59 99 0
-86 60 -99 0
-86 -60 99 0
-86 61 -99 0
-86 -61 99 0
-86 62 -99 0
-86 -62 99 0
-86 63 -99 0
-86 -63 99 0
-86 64 -99 0
-86 -64 99 0
-86 65 -99 0
-86 -65 99 0
-86 66 -99 0
-86 -66 99 0
-87 35 -96 2 0
-87 35 -97 -2 0
-87 -35 96 2 0
-87 -35 97 -2 0
-87 36 -98 3 0
-87 36 -99 -3 0
-87 -36 98 3 0
-87 -36 99 -3 0
-87 37 -96 4 0
-87 37 -97 -4 0
-87 -37 96 4 0
-87 -37 97 -4 0
-87 38 -98 5 0
-87 38 -99 -5 0
-87 -38 98 5 0
-87 -38 99 -5 0
-87 39 -96 6 0
-87 39 -97 -6 0
-87 -39 96 6 0
-87 -39 97 -6 0
-87 40 -98 7 0
-87 40 -99 -7 0
-87 -40 98 7 0
-87 -40 99 -7 0
-87 41 -96 8 0
-87 41 -97 -8 0
-87 -41 96 8 0
-87 -41 97 -8 0
-87 42 -98 9 0
-87 42 -99 -9 0
-87 -42 98 9 0
-87 -42 99 -9 0
-87 43 -96 10 0
-87 43 -97 -10 0
-87 -43 96 10 0
-87 -43 97 -10 0
-87 44 -98 11 0
-87 44 -99 -11 0
-87 -44 98 11 0
-87 -44 99 -11 0
-87 45 -96 12 0
-87 45 -97 -12 0
-87 -45 96 12 0
-87 -45 97 -12 0
-87 46 -98 13 0
-87 46 -99 -13 0
-87 -46 98 13 0
-87 -46 99 -13 0
-87 47 -96 14 0
-87 47 -97 -14 0
-87 -47 96 14 0
-87 -47 97 -14 0
-87 48 -98 15 0
-87 48 -99 -15 0
-87 -48 98 15 0
-87 -48 99 -15 0
-87 49 -96 16 0
-87 49 -97 -16 0
-87 -49 96 16 0
-87 -49 97 -16 0
-87 50 -98 17 0
-87 50 -99 -17 0
-87 -50 98 17 0
-87 -50 99 -17 0
-87 51 -96 18 0
-87 51 -97 -18 0
-87 -51 96 18 0
-87 -51 97 -18 0
-87 52 -98 19 0
-87 52 -99 -19 0
-87 -52 98 19 0
-87 -52 99 -19 0
-87 53 -96 20 0
-87 53 -97 -20 0
-87 -53 96 20 0
-87 -53 97 -20 0
-87 54 -98 21 0
-87 54 -99 -21 0
-87 -54 98 21 0
-87 -54 99 -21 0
-87 55 -96 22 0
-87 55 -97 -22 0
-87 -55 96 22 0
-87 -55 97 -22 0
-87 56 -98 23 0
-87 56 -99 -23 0
-87 -56 98 23 0
-87 -56 99 -23 0
-87 57 -96 24 0
-87 57 -97 -24 0
-87 -57 96 24 0
-87 -57 97 -24 0
-87 58 -98 25 0
-87 58 -99 -25 0
-87 -58 98 25 0
-87 -58 99 -25 0
-87 59 -96 26 0
-87 59 -97 -26 0
-87 -59 96 26 0
-87 -59 97 -26 0
-87 60 -98 27 0
-87 60 -99 -27 0
-87 -60 98 27 0
-87 -60 99 -27 0
-87 61 -96 28 0
-87 61 -97 -28 0
-87 -61 96 28 0
-87 -61 97 -28 0
-87 62 -98 29 0
-87 62 -99 -29 0
-87 -62 98 29 0
-87 -62 99 -29 0
-87 63 -96 30 0
-87 63 -97 -30 0
-87 -63 96 30 0
-87 -63 97 -30 0
-87 64 -98 31 0
-87 64 -99 -31 0
-87 -64 98 31 0
-87 -64 99 -31 0
-87 65 -96 32 0
-87 65 -97 -32 0
-87 -65 96 32 0
-87 -65 97 -32 0
-87 66 -98 33 0
-87 66 -99 -33 0
-87 -66 98 33 0
-87 -66 99 -33 0
-88 35 -96 2 0
-88 35 -97 -2 0
-88 -35 96 2 0
-88 -35 97 -2 0
-88 36 -96 3 0
-88 36 -97 -3 0
-88 -36 96 3 0
-88 -36 97 -3 0
-88 37 -98 4 0
-88 37 -99 -4 0
-88 -37 98 4 0
-88 -37 99 -4 0
-88 38 -98 5 0
-88 38 -99 -5 0
-88 -38 98 5 0
-88 -38 99 -5 0
-88 39 -96 6 0
-88 39 -97 -6 0
-88 -39 96 6 0
-88 -39 97 -6 0
-88 40 -96 7 0
-88 40 -97 -7 0
-88 -40 96 7 0
-88 -40 97 -7 0
-88 41 -98 8 0
-88 41 -99 -8 0
-88 -41 98 8 0
-88 -41 99 -8 0
-88 42 -98 9 0
-88 42 -99 -9 0
-88 -42 98 9 0
-88 -42 99 -9 0
-88 43 -96 10 0
-88 43 -97 -10 0
-88 -43 96 10 0
-88 -43 97 -10 0
-88 44 -96 11 0
-88 44 -97 -11 0
-88 -44 96 11 0
-88 -44 97 -11 0
-88 45 -98 12 0
-88 45 -99 -12 0
-88 -45 98 12 0
-88 -45 99 -12 0
-88 46 -98 13 0
-88 46 -99 -13 0
-88 -46 98 13 0
-88 -46 99 -13 0
-88 47 -96 14 0
-88 47 -97 -14 0
-88 -47 96 14 0
-88 -47 97 -14 0
-88 48 -96 15 0
-88 48 -97 -15 0
-88 -48 96 15 0
-88 -48 97 -15 0
-88 49 -98 16 0
-88 49 -99 -16 0
-88 -49 98 16 0
-88 -49 99 -16 0
-88 50 -98 17 0
-88 50 -99 -17 0
-88 -50 98 17 0
-88 -50 99 -17 0
-88 51 -96 18 0
-88 51 -97 -18 0
-88 -51 96 18 0
-88 -51 97 -18 0
-88 52 -96 19 0
-88 52 -97 -19 0
-88 -52 96 19 0
-88 -52 97 -19 0
-88 53 -98 20 0
-88 53 -99 -20 0
-88 -53 98 20 0
-88 -53 99 -20 0
-88 54 -98 21 0
-88 54 -99 -21 0
-88 -54 98 21 0
-88 -54 99 -21 0
-88 55 -96 22 0
-88 55 -97 -22 0
-88 -55 96 22 0
-88 -55 97 -22 0
-88 56 -96 23 0
-88 56 -97 -23 0
-88 -56 96 23 0
-88 -56 97 -23 0
-88 57 -98 24 0
-88 57 -99 -24 0
-88 -57 98 24 0
-88 -57 99 -24 0
-88 58 -98 25 0
-88 58 -99 -25 0
-88 -58 98 25 0
-88 -58 99 -25 0
-88 59 -96 26 0
-88 59 -97 -26 0
-88 -59 96 26 0
-88 -59 97 -26 0
-88 60 -96 27 0
-88 60 -97 -27 0
-88 -60 96 27 0
-88 -60 97 -27 0
-88 61 -98 28 0
-88 61 -99 -28 0
-88 -61 98 28 0
-88 -61 99 -28 0
-88 62 -98 29 0
-88 62 -99 -29 0
-88 -62 98 29 0
-88 -62 99 -29 0
-88 63 -96 30 0
-88 63 -97 -30 0
-88 -63 96 30 0
-88 -63 97 -30 0
-88 64 -96 31 0
-88 64 -97 -31 0
-88 -64 96 31 0
-88 -64 97 -31 0
-88 65 -98 32 0
-88 65 -99 -32 0
-88 -65 98 32 0
-88 -65 99 -32 0
-88 66 -98 33 0
-88 66 -99 -33 0
-88 -66 98 33 0
-88 -66 99 -33 0
-89 35 -96 2 0
-89 35 -97 -2 0
-89 -35 96 2 0
-89 -35 97 -2 0
-89 36 -96 3 0
-89 36 -97 -3 0
-89 -36 96 3 0
-89 -36 97 -3 0
-89 37 -96 4 0
-89 37 -97 -4 0
-89 -37 96 4 0
-89 -37 97 -4 0
-89 38 -96 5 0
-89 38 -97 -5 0
-89 -38 96 5 0
-89 -38 97 -5 0
-89 39 -98 6 0
-89 39 -99 -6 0
-89 -39 98 6 0
-89 -39 99 -6 0
-89 40 -98 7 0
-89 40 -99 -7 0
-89 -40 98 7 0
-89 -40 99 -7 0
-89 41 -98 8 0
-89 41 -99 -8 0
-89 -41 98 8 0
-89 -41 99 -8 0
-89 42 -98 9 0
-89 42 -99 -9 0
-89 -42 98 9 0
-89 -42 99 -9 0
-89 43 -96 10 0
-89 43 -97 -10 0
-89 -43 96 10 0
-89 -43 97 -10 0
-89 44 -96 11 0
-89 44 -97 -11 0
-89 -44 96 11 0
-89 -44 97 -11 0
-89 45 -96 12 0
-89 45 -97 -12 0
-89 -45 96 12 0
-89 -45 97 -12 0
-89 46 -96 13 0
-89 46 -97 -13 0
-89 -46 96 13 0
-89 -46 97 -13 0
-89 47 -98 14 0
-89 47 -99 -14 0
-89 -47 98 14 0
-89 -47 99 -14 0
-89 48 -98 15 0
-89 48 -99 -15 0
-89 -48 98 15 0
-89 -48 99 -15 0
-89 49 -98 16 0
-89 49 -99 -16 0
-89 -49 98 16 0
-89 -49 99 -16 0
-89 50 -98 17 0
-89 50 -99 -17 0
-89 -50 98 17 0
-89 -50 99 -17 0
-89 51 -96 18 0
-89 51 -97 -18 0
-89 -51 96 18 0
-89 -51 97 -18 0
-89 52 -96 19 0
-89 52 -97 -19 0
-89 -52 96 19 0
-89 -52 97 -19 0
-89 53 -96 20 0
-89 53 -97 -20 0
-89 -53 96 20 0
-89 -53 97 -20 0
-89 54 -96 21 0
-89 54 -97 -21 0
-89 -54 96 21 0
-89 -54 97 -21 0
-89 55 -98 22 0
-89 55 -99 -22 0
-89 -55 98 22 0
-89 -55 99 -22 0
-89 56 -98 23 0
-89 56 -99 -23 0
-89 -56 98 23 0
-89 -56 99 -23 0
-89 57 -98 24 0
-89 57 -99 -24 0
-89 -57 98 24 0
-89 -57 99 -24 0
-89 58 -98 25 0
-89 58 -99 -25 0
-89 -58 98 25 0
-89 -58 99 -25 0
-89 59 -96 26 0
-89 59 -97 -26 0
-89 -59 96 26 0
-89 -59 97 -26 0
-89 60 -96 27 0
-89 60 -97 -27 0
-89 -60 96 27 0
-89 -60 97 -27 0
-89 61 -96 28 0
-89 61 -97 -28 0
-89 -61 96 28 0
-89 -61 97 -28 0
-89 62 -96 29 0
-89 62 -97 -29 0
-89 -62 96 29 0
-89 -62 97 -29 0
-89 63 -98 30 0
-89 63 -99 -30 0
-89 -63 98 30 0
-89 -63 99 -30 0
-89 64 -98 31 0
-89 64 -99 -31 0
-89 -64 98 31 0
-89 -64 99 -31 0
-89 65 -98 32 0
-89 65 -99 -32 0
-89 -65 98 32 0
-89 -65 99 -32 0
-89 66 -98 33 0
-89 66 -99 -33 0
-89 -66 98 33 0
-89 -66 99 -33 0
-90 35 -96 2 0
-90 35 -97 -2 0
-90 -35 96 2 0
-90 -35 97 -2 0
-90 36 -96 3 0
-90 36 -97 -3 0
-90 -36 96 3 0
-90 -36 97 -3 0
-90 37 -96 4 0
-90 37 -97 -4 0
-90 -37 96 4 0
-90 -37 97 -4 0
-90 38 -96 5 0
-90 38 -97 -5 0
-90 -38 96 5 0
-90 -38 97 -5 0
-90 39 -96 6 0
-90 39 -97 -6 0
-90 -39 96 6 0
-90 -39 97 -6 0
-90 40 -96 7 0
-90 40 -97 -7 0
-90 -40 96 7 0
-90 -40 97 -7 0
-90 41 -96 8 0
-90 41 -97 -8 0
-90 -41 96 8 0
-90 -41 97 -8 0
-90 42 -96 9 0
-90 42 -97 -9 0
-90 -42 96 9 0
-90 -42 97 -9 0
-90 43 -98 10 0
-90 43 -99 -10 0
-90 -43 98 10 0
-90 -43 99 -10 0
-90 44 -98 11 0
-90 44 -99 -11 0
-90 -44 98 11 0
-90 -44 99 -11 0
-90 45 -98 12 0
-90 45 -99 -12 0
-90 -45 98 12 0
-90 -45 99 -12 0
-90 46 -98 13 0
-90 46 -99 -13 0
-90 -46 98 13 0
-90 -46 99 -13 0
-90 47 -98 14 0
-90 47 -99 -14 0
-90 -47 98 14 0
-90 -47 99 -14 0
-90 48 -98 15 0
-90 48 -99 -15 0
-90 -48 98 15 0
-90 -48 99 -15 0
-90 49 -98 16 0
-90 49 -99 -16 0
-90 -49 98 16 0
-90 -49 99 -16 0
-90 50 -98 17 0
-90 50 -99 -17 0
-90 -50 98 17 0
-90 -50 99 -17 0
-90 51 -96 18 0
-90 51 -97 -18 0
-90 -51 96 18 0
-90 -51 97 -18 0
-90 52 -96 19 0
-90 52 -97 -19 0
-90 -52 96 19 0
-90 -52 97 -19 0
-90 53 -96 20 0
-90 53 -97 -20 0
-90 -53 96 20 0
-90 -53 97 -20 0
-90 54 -96 21 0
-90 54 -97 -21 0
-90 -54 96 21 0
-90 -54 97 -21 0
-90 55 -96 22 0
-90 55 -97 -22 0
-90 -55 96 22 0
-90 -55 97 -22 0
-90 56 -96 23 0
-90 56 -97 -23 0
-90 -56 96 23 0
-90 -56 97 -23 0
-90 57 -96 24 0
-90 57 -97 -24 0
-90 -57 96 24 0
-90 -57 97 -24 0
-90 58 -96 25 0
-90 58 -97 -25 0
-90 -58 96 25 0
-90 -58 97 -25 0
-90 59 -98 26 0
-90 59 -99 -26 0
-90 -59 98 26 0
-90 -59 99 -26 0
-90 60 -98 27 0
-90 60 -99 -27 0
-90 -60 98 27 0
-90 -60 99 -27 0
-90 61 -98 28 0
-90 61 -99 -28 0
-90 -61 98 28 0
-90 -61 99 -28 0
-90 62 -98 29 0
-90 62 -99 -29 0
-90 -62 98 29 0
-90 -62 99 -29 0
-90 63 -98 30 0
-90 63 -99 -30 0
-90 -63 98 30 0
-90 -63 99 -30 0
-90 64 -98 31 0
-90 64 -99 -31 0
-90 -64 98 31 0
-90 -64 99 -31 0
-90 65 -98 32 0
-90 65 -99 -32 0
-90 -65 98 32 0
-90 -65 99 -32 0
-90 66 -98 33 0
-90 66 -99 -33 0
-90 -66 98 33 0
-90 -66 99 -33 0
-91 35 -96 2 0
-91 35 -97 -2 0
-91 -35 96 2 0
-91 -35 97 -2 0
-91 36 -96 3 0
-91 36 -97 -3 0
-91 -36 96 3 0
-91 -36 97 -3 0
-91 37 -96 4 0
-91 37 -97 -4 0
-91 -37 96 4 0
-91 -37 97 -4 0
-91 38 -96 5 0
-91 38 -97 -5 0
-91 -38 96 5 0
-91 -38 97 -5 0
-91 39 -96 6 0
-91 39 -97 -6 0
-91 -39 96 6 0
-91 -39 97 -6 0
-91 40 -96 7 0
-91 40 -97 -7 0
-91 -40 96 7 0
-91 -40 97 -7 0
-91 41 -96 8 0
-91 41 -97 -8 0
-91 -41 96 8 0
-91 -41 97 -8 0
-91 42 -96 9 0
-91 42 -97 -9 0
-91 -42 96 9 0
-91 -42 97 -9 0
-91 43 -96 10 0
-91 43 -97 -10 0
-91 -43 96 10 0
-91 -43 97 -10 0
-91 44 -96 11 0
-91 44 -97 -11 0
-91 -44 96 11 0
-91 -44 97 -11 0
-91 45 -96 12 0
-91 45 -97 -12 0
-91 -45 96 12 0
-91 -45 97 -12 0
-91 46 -96 13 0
-91 46 -97 -13 0
-91 -46 96 13 0
-91 -46 97 -13 0
-91 47 -96 14 0
-91 47 -97 -14 0
-91 -47 96 14 0
-91 -47 97 -14 0
-91 48 -96 15 0
-91 48 -97 -15 0
-91 -48 96 15 0
-91 -48 97 -15 0
-91 49 -96 16 0
-91 49 -97 -16 0
-91 -49 96 16 0
-91 -49 97 -16 0
-91 50 -96 17 0
-91 50 -97 -17 0
-91 -50 96 17 0
-91 -50 97 -17 0
-91 51 -98 18 0
-91 51 -99 -18 0
-91 -51 98 18 0
-91 -51 99 -18 0
-91 52 -98 19 0
-91 52 -99 -19 0
-91 -52 98 19 0
-91 -52 99 -19 0
-91 53 -98 20 0
-91 53 -99 -20 0
-91 -53 98 20 0
-91 -53 99 -20 0
-91 54 -98 21 0
-91 54 -99 -21 0
-91 -54 98 21 0
-91 -54 99 -21 0
-91 55 -98 22 0
-91 55 -99 -22 0
-91 -55 98 22 0
-91 -55 99 -22 0
-91 56 -98 23 0
-91 56 -99 -23 0
-91 -56 98 23 0
-91 -56 99 -23 0
-91 57 -98 24 0
-91 57 -99 -24 0
-91 -57 98 24 0
-91 -57 99 -24 0
-91 58 -98 25 0
-91 58 -99 -25 0
-91 -58 98 25 0
-91 -58 99 -25 0
-91 59 -98 26 0
-91 59 -99 -26 0
-91 -59 98 26 0
-91 -59 99 -26 0
-91 60 -98 27 0
-91 60 -99 -27 0
-91 -60 98 27 0
-91 -60 99 -27 0
-91 61 -98 28 0
-91 61 -99 -28 0
-91 -61 98 28 0
-91 -61 99 -28 0
-91 62 -98 29 0
-91 62 -99 -29 0
-91 -62 98 29 0
-91 -62 99 -29 0
-91 63 -98 30 0
-91 63 -99 -30 0
-91 -63 98 30 0
-91 -63 99 -30 0
-91 64 -98 31 0
-91 64 -99 -31 0
-91 -64 98 31 0
-91 -64 99 -31 0
-91 65 -98 32 0
-91 65 -99 -32 0
-91 -65 98 32 0
-91 -65 99 -32 0
-91 66 -98 33 0
-91 66 -99 -33 0
-91 -66 98 33 0
-91 -66 99 -33 0
93 94 95 0
93 -94 -95 0
-93 94 -95 0
97 98 99 0
97 -98 -99 0
-97 98 -99 0
1 87 88 89 90 91 0
34 0
-67 -87 0
-67 -88 0
-68 -87 0
-68 -89 0
-69 -88 0
-69 -89 0
-70 -87 0
-70 -90 0
-71 -88 0
-71 -90 0
-72 -89 0
-72 -90 0
-73 -87 0
-73 -91 0
-74 -88 0
-74 -91 0
-75 -89 0
-75 -91 0
-76 -90 0
-76 -91 0
-68 -77 0
-69 -77 0
-69 -78 0
-70 -77 0
-70 -78 0
-70 -79 0
-71 -77 0
-71 -78 0
-71 -79 0
-71 -80 0
-72 -77 0
-72 -78 0
-72 -79 0
-72 -80 0
-72 -81 0
-73 -77 0
-73 -78 0
-73 -79 0
-73 -80 0
-73 -81 0
-73 -82 0
-74 -77 0
-74 -78 0
-74 -79 0
-74 -80 0
-74 -81 0
-74 -82 0
-74 -83 0
-75 -77 0
-75 -78 0
-75 -79 0
-75 -80 0
-75 -81 0
-75 -82 0
-75 -83 0
-75 -84 0
-76 -77 0
-76 -78 0
-76 -79 0
-76 -80 0
-76 -81 0
-76 -82 0
-76 -83 0
-76 -84 0
-76 -85 0
